\ Model AirplaneCargo
\ LP format - for model browsing. Use MPS format to capture full model detail.
Maximize
  320 X[0,0] + 320 X[0,1] + 320 X[0,2] + 400 X[1,0] + 400 X[1,1]
   + 400 X[1,2] + 360 X[2,0] + 360 X[2,1] + 360 X[2,2] + 290 X[3,0]
   + 290 X[3,1] + 290 X[3,2]
Subject To
 con1[0]-: 500 X[0,0] + 700 X[1,0] + 600 X[2,0] + 400 X[3,0] <= 7000
 con1[1]-: 500 X[0,1] + 700 X[1,1] + 600 X[2,1] + 400 X[3,1] <= 9000
 con1[2]-: 500 X[0,2] + 700 X[1,2] + 600 X[2,2] + 400 X[3,2] <= 5000
 con2[0]-: X[0,0] + X[1,0] + X[2,0] + X[3,0] <= 12
 con2[1]-: X[0,1] + X[1,1] + X[2,1] + X[3,1] <= 18
 con2[2]-: X[0,2] + X[1,2] + X[2,2] + X[3,2] <= 10
 con3[0]-: X[0,0] + X[0,1] + X[0,2] <= 20
 con3[1]-: X[1,0] + X[1,1] + X[1,2] <= 16
 con3[2]-: X[2,0] + X[2,1] + X[2,2] <= 25
 con3[3]-: X[3,0] + X[3,1] + X[3,2] <= 13
 con4[1]-: 18 X[0,0] - 12 X[0,1] + 18 X[1,0] - 12 X[1,1] + 18 X[2,0]
   - 12 X[2,1] + 18 X[3,0] - 12 X[3,1] = 0
 con4[2]-: 10 X[0,0] - 12 X[0,2] + 10 X[1,0] - 12 X[1,2] + 10 X[2,0]
   - 12 X[2,2] + 10 X[3,0] - 12 X[3,2] = 0
Bounds
End
